
******************************************************************************
This program contains Ipopt, a library for large-scale nonlinear optimization.
 Ipopt is released as open source code under the Eclipse Public License (EPL).
         For more information visit http://projects.coin-or.org/Ipopt
******************************************************************************

This is Ipopt version 3.12.6, running with linear solver ma57.

Number of nonzeros in equality constraint Jacobian...:        0
Number of nonzeros in inequality constraint Jacobian.:     2004
Number of nonzeros in Lagrangian Hessian.............:        1

Total number of variables............................:        2
                     variables with only lower bounds:        0
                variables with lower and upper bounds:        0
                     variables with only upper bounds:        0
Total number of equality constraints.................:        0
Total number of inequality constraints...............:     1002
        inequality constraints with only lower bounds:     1002
   inequality constraints with lower and upper bounds:        0
        inequality constraints with only upper bounds:        0

iter    objective    inf_pr   inf_du lg(mu)  ||d||  lg(rg) alpha_du alpha_pr  ls
   0  0.0000000e+00 1.00e+00 9.98e-01  -1.0 0.00e+00    -  0.00e+00 0.00e+00   0
   1  2.8757815e-02 9.71e-01 2.49e+00  -1.0 7.51e-01    -  1.50e-02 3.83e-02h  1
   2  1.0463415e+00 0.00e+00 2.81e+02  -1.0 1.02e+00    -  4.51e-02 1.00e+00f  1
   3  1.0771305e+00 0.00e+00 7.84e+00  -1.0 3.08e-02   0.0 6.52e-01 1.00e+00f  1
   4  1.2485040e+00 0.00e+00 1.10e+00  -1.0 1.71e-01    -  5.03e-01 1.00e+00f  1
   5  1.7740964e+00 0.00e+00 7.88e-01  -1.0 5.26e-01    -  4.13e-01 1.00e+00f  1
   6  1.9522906e+00 0.00e+00 1.22e-02  -1.7 1.78e-01    -  9.28e-01 1.00e+00f  1
   7  1.7704498e+00 0.00e+00 1.50e-09  -3.8 1.82e-01    -  1.00e+00 1.00e+00f  1
   8  1.0001159e+00 0.00e+00 6.06e-04  -3.8 1.09e+00    -  1.00e+00 7.09e-01f  1
   9  9.9999999e-01 0.00e+00 1.33e-01  -5.7 2.26e-03    -  1.00e+00 5.12e-02f  1
iter    objective    inf_pr   inf_du lg(mu)  ||d||  lg(rg) alpha_du alpha_pr  ls
  10  1.0000126e+00 0.00e+00 1.84e-11  -5.7 1.26e-05    -  1.00e+00 1.00e+00f  1
  11  9.9999999e-01 0.00e+00 9.88e-03  -8.6 1.40e-05  -0.5 1.00e+00 8.99e-01f  1
  12  9.9999999e-01 0.00e+00 2.86e-10  -8.6 2.57e-09  -1.0 1.00e+00 1.00e+00f  1

Number of Iterations....: 12

                                   (scaled)                 (unscaled)
Objective...............:   9.9999999257327787e-01    9.9999999257327787e-01
Dual infeasibility......:   2.8594134677726666e-10    2.8594134677726666e-10
Constraint violation....:   0.0000000000000000e+00    0.0000000000000000e+00
Complementarity.........:   2.5719605132000581e-09    2.5719605132000581e-09
Overall NLP error.......:   2.5719605132000581e-09    2.5719605132000581e-09


Number of objective function evaluations             = 13
Number of objective gradient evaluations             = 13
Number of equality constraint evaluations            = 0
Number of inequality constraint evaluations          = 13
Number of equality constraint Jacobian evaluations   = 0
Number of inequality constraint Jacobian evaluations = 13
Number of Lagrangian Hessian evaluations             = 12
Total CPU secs in IPOPT (w/o function evaluations)   =      0.010
Total CPU secs in NLP function evaluations           =      0.000

EXIT: Optimal Solution Found.

************************ CUTEst statistics ************************


 Package used            :  IPOPT
 Problem                 :  HET-Z     
 # variables             =               2
 # constraints           =            1002
 # objective functions   =        0.2700000E+02
 # objective gradients   =        0.1400000E+02
 # objective Hessians    =        0.1300000E+02
 # Hessian-vector prdct  =        0.0000000E+00
 # constraints functions =        0.2800000E+02
 # constraints gradients =        0.1500000E+02
 # constraints Hessians  =        0.1300000E+02
 Exit code               =               0
 Final f                 =   0.1000000E+01
 Set up time             =            0.02 seconds
 Solve time              =            0.06 seconds


******************************************************************

System Time =       0.0160000008 s.
